NAME: tsp_53
COMMENT: Random TSP instance
TYPE: TSP
DIMENSION: 50
EDGE_WEIGHT_TYPE: EUC_2D
NODE_COORD_SECTION
1 113 11
2 784 638
3 88 673
4 172 294
5 891 429
6 707 880
7 739 888
8 146 312
9 163 149
10 344 425
11 276 997
12 9 226
13 291 603
14 322 250
15 821 770
16 940 859
17 935 974
18 1000 271
19 524 699
20 586 776
21 253 948
22 748 728
23 116 406
24 63 319
25 500 904
26 342 686
27 948 679
28 112 452
29 303 306
30 405 802
31 711 37
32 428 579
33 796 970
34 474 734
35 352 815
36 891 455
37 93 939
38 572 470
39 200 763
40 358 387
41 783 703
42 239 766
43 684 72
44 542 49
45 136 917
46 795 688
47 595 652
48 552 629
49 818 904
50 471 749
